NAME: turkey15
TYPE: TSP
COMMENT: 15-States in Turkey (charydevel)
DIMENSION: 15
EDGE_WEIGHT_TYPE: GEO
EDGE_WEIGHT_FORMAT: FUNCTION 
DISPLAY_DATA_TYPE: COORD_DISPLAY
NODE_COORD_SECTION
   1  36.99       35.33
   2  37.76       38.27
   3  38.75       30.53
   4  39.71       43.05
   5  38.36       34.02
   6  40.65       35.83
   7  39.93       32.85
   8  36.89       30.71
   9  41.11       42.70
  10  41.18       41.82
  11  37.83       27.84
  12  39.65       27.89
  13  41.63       32.33
  14  40.26       40.22
  15  40.14       29.97
EOF


